p cnf 200 1110
-101 -49 0
-101 90 0
-101 -53 0
-101 33 0
-101 -61 0
-101 62 0
-101 -66 0
-101 -36 0
-101 -75 0
-101 1 0
101 49 -90 53 -33 61 -62 66 36 75 -1 0
-102 -36 0
-102 -53 0
-102 17 0
-102 46 0
-102 -21 0
-102 13 0
-102 -44 0
-102 43 0
-102 49 0
-102 99 0
102 36 53 -17 -46 21 -13 44 -43 -49 -99 0
-103 -87 0
-103 -28 0
-103 38 0
-103 -67 0
-103 42 0
-103 91 0
-103 25 0
-103 8 0
-103 -39 0
-103 -46 0
103 87 28 -38 67 -42 -91 -25 -8 39 46 0
-104 -72 0
-104 -79 0
-104 -81 0
-104 6 0
-104 -3 0
-104 -40 0
-104 97 0
-104 100 0
-104 -32 0
-104 70 0
104 72 79 81 -6 3 40 -97 -100 32 -70 0
-105 50 0
-105 -71 0
-105 -93 0
-105 -29 0
-105 -14 0
-105 31 0
-105 83 0
-105 77 0
-105 80 0
-105 -58 0
105 -50 71 93 29 14 -31 -83 -77 -80 58 0
-106 -10 0
-106 -13 0
-106 -6 0
-106 -98 0
-106 57 0
-106 14 0
-106 99 0
-106 -7 0
-106 -96 0
-106 4 0
106 10 13 6 98 -57 -14 -99 7 96 -4 0
-107 -35 0
-107 -44 0
-107 -74 0
-107 97 0
-107 -79 0
-107 -95 0
-107 -22 0
-107 26 0
-107 -56 0
-107 82 0
107 35 44 74 -97 79 95 22 -26 56 -82 0
-108 -8 0
-108 35 0
-108 89 0
-108 -54 0
-108 -79 0
-108 -4 0
-108 90 0
-108 -25 0
-108 -94 0
-108 -31 0
108 8 -35 -89 54 79 4 -90 25 94 31 0
-109 57 0
-109 -13 0
-109 -56 0
-109 -83 0
-109 74 0
-109 -1 0
-109 -22 0
-109 -76 0
-109 47 0
-109 65 0
109 -57 13 56 83 -74 1 22 76 -47 -65 0
-110 -57 0
-110 22 0
-110 88 0
-110 -10 0
-110 2 0
-110 -65 0
-110 -98 0
-110 24 0
-110 -100 0
-110 -43 0
110 57 -22 -88 10 -2 65 98 -24 100 43 0
101 102 103 104 105 106 107 108 109 110 0
-111 80 0
-111 -47 0
-111 23 0
-111 -5 0
-111 -11 0
-111 -10 0
-111 -52 0
-111 -98 0
-111 72 0
-111 -1 0
111 -80 47 -23 5 11 10 52 98 -72 1 0
-112 33 0
-112 27 0
-112 55 0
-112 6 0
-112 -80 0
-112 -43 0
-112 -97 0
-112 -5 0
-112 84 0
-112 85 0
112 -33 -27 -55 -6 80 43 97 5 -84 -85 0
-113 63 0
-113 51 0
-113 -12 0
-113 -27 0
-113 -64 0
-113 -29 0
-113 8 0
-113 -87 0
-113 -33 0
-113 76 0
113 -63 -51 12 27 64 29 -8 87 33 -76 0
-114 84 0
-114 37 0
-114 -82 0
-114 60 0
-114 22 0
-114 21 0
-114 -15 0
-114 39 0
-114 58 0
-114 -51 0
114 -84 -37 82 -60 -22 -21 15 -39 -58 51 0
-115 -21 0
-115 73 0
-115 7 0
-115 4 0
-115 -64 0
-115 87 0
-115 80 0
-115 13 0
-115 -37 0
-115 -97 0
115 21 -73 -7 -4 64 -87 -80 -13 37 97 0
-116 34 0
-116 93 0
-116 -95 0
-116 -85 0
-116 42 0
-116 53 0
-116 -83 0
-116 44 0
-116 77 0
-116 -3 0
116 -34 -93 95 85 -42 -53 83 -44 -77 3 0
-117 90 0
-117 5 0
-117 17 0
-117 37 0
-117 58 0
-117 -19 0
-117 15 0
-117 28 0
-117 -3 0
-117 -62 0
117 -90 -5 -17 -37 -58 19 -15 -28 3 62 0
-118 69 0
-118 -39 0
-118 -50 0
-118 53 0
-118 -82 0
-118 -63 0
-118 93 0
-118 -12 0
-118 91 0
-118 83 0
118 -69 39 50 -53 82 63 -93 12 -91 -83 0
-119 87 0
-119 6 0
-119 34 0
-119 -51 0
-119 -26 0
-119 -48 0
-119 -82 0
-119 98 0
-119 -70 0
-119 -91 0
119 -87 -6 -34 51 26 48 82 -98 70 91 0
-120 -23 0
-120 -21 0
-120 58 0
-120 27 0
-120 -12 0
-120 31 0
-120 -95 0
-120 50 0
-120 -94 0
-120 53 0
120 23 21 -58 -27 12 -31 95 -50 94 -53 0
111 112 113 114 115 116 117 118 119 120 0
-121 -66 0
-121 -12 0
-121 -65 0
-121 30 0
-121 -56 0
-121 77 0
-121 68 0
-121 -32 0
-121 -99 0
-121 58 0
121 66 12 65 -30 56 -77 -68 32 99 -58 0
-122 -46 0
-122 -51 0
-122 -29 0
-122 -79 0
-122 -5 0
-122 2 0
-122 -100 0
-122 87 0
-122 69 0
-122 62 0
122 46 51 29 79 5 -2 100 -87 -69 -62 0
-123 -94 0
-123 -28 0
-123 96 0
-123 -97 0
-123 82 0
-123 62 0
-123 -79 0
-123 -32 0
-123 -18 0
-123 98 0
123 94 28 -96 97 -82 -62 79 32 18 -98 0
-124 43 0
-124 46 0
-124 -77 0
-124 52 0
-124 30 0
-124 61 0
-124 -83 0
-124 82 0
-124 98 0
-124 14 0
124 -43 -46 77 -52 -30 -61 83 -82 -98 -14 0
-125 -26 0
-125 72 0
-125 -14 0
-125 46 0
-125 13 0
-125 -80 0
-125 6 0
-125 29 0
-125 -64 0
-125 -57 0
125 26 -72 14 -46 -13 80 -6 -29 64 57 0
-126 17 0
-126 60 0
-126 45 0
-126 -2 0
-126 50 0
-126 28 0
-126 6 0
-126 -42 0
-126 66 0
-126 71 0
126 -17 -60 -45 2 -50 -28 -6 42 -66 -71 0
-127 -86 0
-127 -79 0
-127 -41 0
-127 -27 0
-127 -7 0
-127 80 0
-127 10 0
-127 46 0
-127 -18 0
-127 -84 0
127 86 79 41 27 7 -80 -10 -46 18 84 0
-128 -61 0
-128 -82 0
-128 -80 0
-128 7 0
-128 40 0
-128 9 0
-128 1 0
-128 -37 0
-128 -93 0
-128 96 0
128 61 82 80 -7 -40 -9 -1 37 93 -96 0
-129 -84 0
-129 80 0
-129 -71 0
-129 24 0
-129 16 0
-129 69 0
-129 -26 0
-129 10 0
-129 -94 0
-129 -27 0
129 84 -80 71 -24 -16 -69 26 -10 94 27 0
-130 98 0
-130 12 0
-130 -18 0
-130 16 0
-130 49 0
-130 19 0
-130 65 0
-130 97 0
-130 71 0
-130 54 0
130 -98 -12 18 -16 -49 -19 -65 -97 -71 -54 0
121 122 123 124 125 126 127 128 129 130 0
-131 75 0
-131 -42 0
-131 -26 0
-131 -94 0
-131 100 0
-131 -59 0
-131 -16 0
-131 24 0
-131 -5 0
-131 -31 0
131 -75 42 26 94 -100 59 16 -24 5 31 0
-132 -5 0
-132 -94 0
-132 -96 0
-132 -13 0
-132 -7 0
-132 -85 0
-132 -20 0
-132 -79 0
-132 -41 0
-132 43 0
132 5 94 96 13 7 85 20 79 41 -43 0
-133 56 0
-133 -20 0
-133 58 0
-133 -85 0
-133 -57 0
-133 -83 0
-133 22 0
-133 -98 0
-133 -17 0
-133 10 0
133 -56 20 -58 85 57 83 -22 98 17 -10 0
-134 -93 0
-134 -52 0
-134 -84 0
-134 41 0
-134 -73 0
-134 23 0
-134 63 0
-134 -10 0
-134 -1 0
-134 91 0
134 93 52 84 -41 73 -23 -63 10 1 -91 0
-135 42 0
-135 13 0
-135 -19 0
-135 -88 0
-135 -81 0
-135 -3 0
-135 39 0
-135 93 0
-135 87 0
-135 -97 0
135 -42 -13 19 88 81 3 -39 -93 -87 97 0
-136 -86 0
-136 64 0
-136 -95 0
-136 -99 0
-136 -20 0
-136 -74 0
-136 -76 0
-136 -11 0
-136 43 0
-136 96 0
136 86 -64 95 99 20 74 76 11 -43 -96 0
-137 94 0
-137 -37 0
-137 90 0
-137 -46 0
-137 -81 0
-137 -97 0
-137 10 0
-137 92 0
-137 -3 0
-137 -82 0
137 -94 37 -90 46 81 97 -10 -92 3 82 0
-138 -76 0
-138 -53 0
-138 -6 0
-138 -31 0
-138 -94 0
-138 -17 0
-138 -85 0
-138 87 0
-138 1 0
-138 -61 0
138 76 53 6 31 94 17 85 -87 -1 61 0
-139 2 0
-139 -87 0
-139 -66 0
-139 -83 0
-139 -10 0
-139 -28 0
-139 -31 0
-139 -68 0
-139 -6 0
-139 -55 0
139 -2 87 66 83 10 28 31 68 6 55 0
-140 12 0
-140 -20 0
-140 90 0
-140 92 0
-140 49 0
-140 22 0
-140 -89 0
-140 -62 0
-140 -32 0
-140 -71 0
140 -12 20 -90 -92 -49 -22 89 62 32 71 0
131 132 133 134 135 136 137 138 139 140 0
-141 -53 0
-141 97 0
-141 58 0
-141 -60 0
-141 93 0
-141 98 0
-141 7 0
-141 99 0
-141 -51 0
-141 -55 0
141 53 -97 -58 60 -93 -98 -7 -99 51 55 0
-142 73 0
-142 -82 0
-142 -33 0
-142 -46 0
-142 71 0
-142 90 0
-142 -70 0
-142 21 0
-142 97 0
-142 -27 0
142 -73 82 33 46 -71 -90 70 -21 -97 27 0
-143 20 0
-143 -90 0
-143 100 0
-143 -39 0
-143 -5 0
-143 -56 0
-143 -38 0
-143 72 0
-143 -97 0
-143 27 0
143 -20 90 -100 39 5 56 38 -72 97 -27 0
-144 -44 0
-144 -84 0
-144 -16 0
-144 -32 0
-144 -8 0
-144 20 0
-144 -90 0
-144 -43 0
-144 26 0
-144 -4 0
144 44 84 16 32 8 -20 90 43 -26 4 0
-145 -64 0
-145 23 0
-145 -93 0
-145 6 0
-145 -14 0
-145 18 0
-145 -89 0
-145 100 0
-145 44 0
-145 47 0
145 64 -23 93 -6 14 -18 89 -100 -44 -47 0
-146 -100 0
-146 -44 0
-146 -50 0
-146 2 0
-146 -22 0
-146 -60 0
-146 -26 0
-146 -88 0
-146 98 0
-146 -13 0
146 100 44 50 -2 22 60 26 88 -98 13 0
-147 -11 0
-147 -81 0
-147 -65 0
-147 1 0
-147 -26 0
-147 95 0
-147 96 0
-147 19 0
-147 90 0
-147 -58 0
147 11 81 65 -1 26 -95 -96 -19 -90 58 0
-148 -8 0
-148 43 0
-148 77 0
-148 35 0
-148 -94 0
-148 -73 0
-148 70 0
-148 -51 0
-148 -56 0
-148 -68 0
148 8 -43 -77 -35 94 73 -70 51 56 68 0
-149 58 0
-149 -66 0
-149 28 0
-149 96 0
-149 -77 0
-149 -6 0
-149 18 0
-149 -42 0
-149 83 0
-149 -56 0
149 -58 66 -28 -96 77 6 -18 42 -83 56 0
-150 77 0
-150 85 0
-150 21 0
-150 -12 0
-150 55 0
-150 -64 0
-150 4 0
-150 18 0
-150 61 0
-150 28 0
150 -77 -85 -21 12 -55 64 -4 -18 -61 -28 0
141 142 143 144 145 146 147 148 149 150 0
-151 -25 0
-151 -9 0
-151 -93 0
-151 54 0
-151 23 0
-151 -42 0
-151 -20 0
-151 4 0
-151 -77 0
-151 -1 0
151 25 9 93 -54 -23 42 20 -4 77 1 0
-152 31 0
-152 36 0
-152 -49 0
-152 -92 0
-152 19 0
-152 -57 0
-152 26 0
-152 -88 0
-152 83 0
-152 52 0
152 -31 -36 49 92 -19 57 -26 88 -83 -52 0
-153 17 0
-153 86 0
-153 -62 0
-153 -4 0
-153 46 0
-153 98 0
-153 -24 0
-153 -9 0
-153 -49 0
-153 -1 0
153 -17 -86 62 4 -46 -98 24 9 49 1 0
-154 -11 0
-154 71 0
-154 47 0
-154 -40 0
-154 -39 0
-154 -66 0
-154 -8 0
-154 9 0
-154 -7 0
-154 25 0
154 11 -71 -47 40 39 66 8 -9 7 -25 0
-155 39 0
-155 14 0
-155 84 0
-155 60 0
-155 23 0
-155 -31 0
-155 95 0
-155 -47 0
-155 2 0
-155 6 0
155 -39 -14 -84 -60 -23 31 -95 47 -2 -6 0
-156 16 0
-156 -95 0
-156 -78 0
-156 -62 0
-156 11 0
-156 34 0
-156 46 0
-156 -18 0
-156 55 0
-156 -85 0
156 -16 95 78 62 -11 -34 -46 18 -55 85 0
-157 83 0
-157 -44 0
-157 59 0
-157 51 0
-157 16 0
-157 -93 0
-157 91 0
-157 -84 0
-157 24 0
-157 41 0
157 -83 44 -59 -51 -16 93 -91 84 -24 -41 0
-158 49 0
-158 -96 0
-158 -85 0
-158 45 0
-158 30 0
-158 55 0
-158 56 0
-158 -94 0
-158 80 0
-158 88 0
158 -49 96 85 -45 -30 -55 -56 94 -80 -88 0
-159 -41 0
-159 28 0
-159 -35 0
-159 93 0
-159 38 0
-159 10 0
-159 -57 0
-159 62 0
-159 -89 0
-159 46 0
159 41 -28 35 -93 -38 -10 57 -62 89 -46 0
-160 64 0
-160 79 0
-160 -92 0
-160 -8 0
-160 -65 0
-160 61 0
-160 9 0
-160 -1 0
-160 -28 0
-160 -93 0
160 -64 -79 92 8 65 -61 -9 1 28 93 0
151 152 153 154 155 156 157 158 159 160 0
-161 37 0
-161 -31 0
-161 6 0
-161 14 0
-161 -41 0
-161 -23 0
-161 -9 0
-161 -86 0
-161 3 0
-161 4 0
161 -37 31 -6 -14 41 23 9 86 -3 -4 0
-162 27 0
-162 87 0
-162 14 0
-162 -50 0
-162 -6 0
-162 -33 0
-162 23 0
-162 -64 0
-162 -55 0
-162 -2 0
162 -27 -87 -14 50 6 33 -23 64 55 2 0
-163 -94 0
-163 12 0
-163 -48 0
-163 -32 0
-163 -51 0
-163 38 0
-163 41 0
-163 58 0
-163 99 0
-163 -92 0
163 94 -12 48 32 51 -38 -41 -58 -99 92 0
-164 5 0
-164 40 0
-164 15 0
-164 56 0
-164 -63 0
-164 -97 0
-164 89 0
-164 47 0
-164 -20 0
-164 -14 0
164 -5 -40 -15 -56 63 97 -89 -47 20 14 0
-165 11 0
-165 -6 0
-165 -77 0
-165 14 0
-165 -45 0
-165 37 0
-165 -67 0
-165 -5 0
-165 -72 0
-165 29 0
165 -11 6 77 -14 45 -37 67 5 72 -29 0
-166 -13 0
-166 31 0
-166 87 0
-166 -95 0
-166 61 0
-166 51 0
-166 99 0
-166 -41 0
-166 20 0
-166 58 0
166 13 -31 -87 95 -61 -51 -99 41 -20 -58 0
-167 41 0
-167 -29 0
-167 -5 0
-167 -84 0
-167 -60 0
-167 -62 0
-167 -42 0
-167 -79 0
-167 -68 0
-167 81 0
167 -41 29 5 84 60 62 42 79 68 -81 0
-168 -20 0
-168 -88 0
-168 79 0
-168 -17 0
-168 -13 0
-168 -39 0
-168 21 0
-168 72 0
-168 30 0
-168 -32 0
168 20 88 -79 17 13 39 -21 -72 -30 32 0
-169 -37 0
-169 -28 0
-169 80 0
-169 70 0
-169 56 0
-169 -67 0
-169 -73 0
-169 -17 0
-169 -23 0
-169 4 0
169 37 28 -80 -70 -56 67 73 17 23 -4 0
-170 37 0
-170 85 0
-170 -9 0
-170 51 0
-170 14 0
-170 -18 0
-170 32 0
-170 -13 0
-170 -7 0
-170 -15 0
170 -37 -85 9 -51 -14 18 -32 13 7 15 0
161 162 163 164 165 166 167 168 169 170 0
-171 52 0
-171 37 0
-171 -12 0
-171 6 0
-171 32 0
-171 -41 0
-171 -50 0
-171 -58 0
-171 -70 0
-171 45 0
171 -52 -37 12 -6 -32 41 50 58 70 -45 0
-172 61 0
-172 -86 0
-172 -47 0
-172 -100 0
-172 69 0
-172 -57 0
-172 -31 0
-172 -48 0
-172 -40 0
-172 -24 0
172 -61 86 47 100 -69 57 31 48 40 24 0
-173 100 0
-173 -57 0
-173 -99 0
-173 -54 0
-173 -64 0
-173 34 0
-173 -55 0
-173 -3 0
-173 5 0
-173 -56 0
173 -100 57 99 54 64 -34 55 3 -5 56 0
-174 -70 0
-174 59 0
-174 22 0
-174 -32 0
-174 -1 0
-174 -73 0
-174 72 0
-174 48 0
-174 -78 0
-174 58 0
174 70 -59 -22 32 1 73 -72 -48 78 -58 0
-175 39 0
-175 -26 0
-175 25 0
-175 -30 0
-175 -80 0
-175 82 0
-175 -16 0
-175 11 0
-175 -63 0
-175 18 0
175 -39 26 -25 30 80 -82 16 -11 63 -18 0
-176 -80 0
-176 54 0
-176 72 0
-176 52 0
-176 99 0
-176 79 0
-176 23 0
-176 13 0
-176 10 0
-176 -74 0
176 80 -54 -72 -52 -99 -79 -23 -13 -10 74 0
-177 26 0
-177 47 0
-177 -42 0
-177 -58 0
-177 7 0
-177 -44 0
-177 80 0
-177 -83 0
-177 60 0
-177 -35 0
177 -26 -47 42 58 -7 44 -80 83 -60 35 0
-178 -7 0
-178 -29 0
-178 64 0
-178 96 0
-178 -58 0
-178 -60 0
-178 -69 0
-178 -88 0
-178 -52 0
-178 -83 0
178 7 29 -64 -96 58 60 69 88 52 83 0
-179 94 0
-179 -44 0
-179 -54 0
-179 87 0
-179 -43 0
-179 84 0
-179 41 0
-179 83 0
-179 -98 0
-179 30 0
179 -94 44 54 -87 43 -84 -41 -83 98 -30 0
-180 -86 0
-180 -44 0
-180 26 0
-180 -14 0
-180 -23 0
-180 -16 0
-180 43 0
-180 -8 0
-180 -93 0
-180 59 0
180 86 44 -26 14 23 16 -43 8 93 -59 0
171 172 173 174 175 176 177 178 179 180 0
-181 -2 0
-181 32 0
-181 -62 0
-181 18 0
-181 -56 0
-181 -66 0
-181 55 0
-181 75 0
-181 40 0
-181 -49 0
181 2 -32 62 -18 56 66 -55 -75 -40 49 0
-182 -72 0
-182 67 0
-182 76 0
-182 17 0
-182 -42 0
-182 -46 0
-182 -33 0
-182 32 0
-182 97 0
-182 -56 0
182 72 -67 -76 -17 42 46 33 -32 -97 56 0
-183 -42 0
-183 62 0
-183 89 0
-183 17 0
-183 -74 0
-183 27 0
-183 -25 0
-183 24 0
-183 31 0
-183 18 0
183 42 -62 -89 -17 74 -27 25 -24 -31 -18 0
-184 -96 0
-184 -98 0
-184 -3 0
-184 -25 0
-184 57 0
-184 90 0
-184 -64 0
-184 48 0
-184 97 0
-184 36 0
184 96 98 3 25 -57 -90 64 -48 -97 -36 0
-185 -86 0
-185 -57 0
-185 33 0
-185 -12 0
-185 -68 0
-185 -18 0
-185 78 0
-185 21 0
-185 -64 0
-185 -92 0
185 86 57 -33 12 68 18 -78 -21 64 92 0
-186 95 0
-186 55 0
-186 -86 0
-186 -32 0
-186 -31 0
-186 -3 0
-186 -45 0
-186 94 0
-186 41 0
-186 -100 0
186 -95 -55 86 32 31 3 45 -94 -41 100 0
-187 4 0
-187 87 0
-187 -13 0
-187 74 0
-187 -52 0
-187 -72 0
-187 -70 0
-187 9 0
-187 -96 0
-187 -78 0
187 -4 -87 13 -74 52 72 70 -9 96 78 0
-188 -80 0
-188 23 0
-188 -62 0
-188 81 0
-188 -69 0
-188 -11 0
-188 45 0
-188 -88 0
-188 -57 0
-188 30 0
188 80 -23 62 -81 69 11 -45 88 57 -30 0
-189 15 0
-189 21 0
-189 67 0
-189 41 0
-189 70 0
-189 50 0
-189 -35 0
-189 84 0
-189 68 0
-189 73 0
189 -15 -21 -67 -41 -70 -50 35 -84 -68 -73 0
-190 8 0
-190 -75 0
-190 92 0
-190 5 0
-190 -28 0
-190 -56 0
-190 93 0
-190 -31 0
-190 29 0
-190 98 0
190 -8 75 -92 -5 28 56 -93 31 -29 -98 0
181 182 183 184 185 186 187 188 189 190 0
-191 46 0
-191 -88 0
-191 34 0
-191 -49 0
-191 -99 0
-191 -28 0
-191 -47 0
-191 92 0
-191 -87 0
-191 -86 0
191 -46 88 -34 49 99 28 47 -92 87 86 0
-192 -22 0
-192 -52 0
-192 -36 0
-192 -91 0
-192 -92 0
-192 82 0
-192 -84 0
-192 83 0
-192 60 0
-192 -76 0
192 22 52 36 91 92 -82 84 -83 -60 76 0
-193 -94 0
-193 -38 0
-193 -93 0
-193 -8 0
-193 31 0
-193 99 0
-193 -25 0
-193 35 0
-193 83 0
-193 65 0
193 94 38 93 8 -31 -99 25 -35 -83 -65 0
-194 98 0
-194 -7 0
-194 -16 0
-194 26 0
-194 -18 0
-194 83 0
-194 -31 0
-194 -38 0
-194 -44 0
-194 -63 0
194 -98 7 16 -26 18 -83 31 38 44 63 0
-195 -3 0
-195 -98 0
-195 27 0
-195 30 0
-195 24 0
-195 -75 0
-195 83 0
-195 -58 0
-195 -81 0
-195 65 0
195 3 98 -27 -30 -24 75 -83 58 81 -65 0
-196 52 0
-196 44 0
-196 79 0
-196 -54 0
-196 -92 0
-196 -78 0
-196 -8 0
-196 -15 0
-196 35 0
-196 -38 0
196 -52 -44 -79 54 92 78 8 15 -35 38 0
-197 17 0
-197 -43 0
-197 28 0
-197 -54 0
-197 -25 0
-197 -33 0
-197 -86 0
-197 -84 0
-197 59 0
-197 -36 0
197 -17 43 -28 54 25 33 86 84 -59 36 0
-198 -6 0
-198 49 0
-198 -96 0
-198 86 0
-198 -33 0
-198 -51 0
-198 -15 0
-198 -67 0
-198 12 0
-198 28 0
198 6 -49 96 -86 33 51 15 67 -12 -28 0
-199 22 0
-199 -33 0
-199 -90 0
-199 -26 0
-199 -53 0
-199 -35 0
-199 -41 0
-199 -51 0
-199 -43 0
-199 -92 0
199 -22 33 90 26 53 35 41 51 43 92 0
-200 -98 0
-200 64 0
-200 70 0
-200 -54 0
-200 -52 0
-200 72 0
-200 -26 0
-200 1 0
-200 61 0
-200 87 0
200 98 -64 -70 54 52 -72 26 -1 -61 -87 0
191 192 193 194 195 196 197 198 199 200 0
